Quantum-Cryptanalysis/instances/phi10.cnf
p cnf 15 69
-11 -10 12 0
-8 -7 -6 0
15 14 0
8 -6 -5 0
-8 -7 5 0
5 -7 -6 0
-11 -10 -12 0
5 8 -6 0
9 11 10 0
9 11 12 0
3 2 -4 0
-8 -7 -5 0
-8 -6 5 0
-8 -6 7 0
3 -2 -4 0
-13 -14 0
-1 2 -4 0
15 13 0
8 -7 -6 0
11 10 -12 0
8 7 -5 0
5 -7 6 0
1 2 -4 0
11 -12 -10 0
8 -6 7 0
1 -2 3 0
-11 12 -9 0
-8 -7 6 0
14 -15 0
1 -2 -3 0
11 10 -9 0
-10 -12 -9 0
-13 14 0
13 14 0
11 -12 -9 0
11 10 12 0
1 2 3 0
8 7 6 0
1 -2 -4 0
-8 6 -5 0
4 -2 -3 0
-11 -12 10 0
15 -14 0
5 8 7 0
9 -11 10 0
4 3 -1 0
1 3 -4 0
10 12 -9 0
9 -10 12 0
5 8 6 0
15 -13 0
-8 7 -5 0
-1 -3 -4 0
3 -2 -1 0
-8 -6 -5 0
5 8 -7 0
1 4 0
8 -7 6 0
9 -12 0
4 -2 3 0
9 10 12 0
-6 -5 7 0
2 -3 -4 0
9 -11 -10 0
-11 10 12 0
-13 -15 0
4 2 3 0
9 -11 12 0
4 -2 -1 0
